centroides = 0;
nNurses = 186;
hours = 70;
demand = [15 21 45 11 31 20 4 46 10 5 6 1 28 0 34 9 13 39 6 36 45 38 13 7 39 3 17 28 38 27 23 14 32 33 37 20 35 18 7 28 2 6 46 16 44 44 15 41 43 37 13 21 31 33 42 21 33 2 39 14 33 0 18 22 22 24 46 39 17 2];
minHours = 15;
maxHours = 23;
maxConsec = 18;
maxPresence = 30;